Route #1: 17 40 12
Route #2: 32 44 3 51
Route #3: 6 2
Route #4: 28 22 33
Route #5: 1 42 41 43 23
Route #6: 7 53 14
Route #7: 35 19 54 13 27
Route #8: 45 29 5 15
Route #9: 20 37 36 47
Route #10: 21 48 30
Route #11: 4 52 34
Route #12: 16 49 24 18
Route #13: 50 25 9
Route #14: 39 31 10
Route #15: 38 11
Route #16: 46 8 26
Cost 955